p cnf 23 57
c inputs: 1 2 3 4
c variables for gates: 5 ... 19
c outputs: 20 21 22 23
c random input: 1 2 -3 -4
5 -2 -3 0
-5 2 0
-5 3 0
6 -1 -4 0
-6 1 0
-6 4 0
7 -5 6 0
-7 5 0
-7 -6 0
8 -6 5 0
-8 6 0
-8 -5 0
9 8 7 0
-9 -8 0
-9 -7 0
10 -2 -3 0
-10 2 0
-10 3 0
11 -1 -4 0
-11 1 0
-11 4 0
12 -10 -11 0
-12 10 0
-12 11 0
13 -2 -4 0
-13 2 0
-13 4 0
14 -13 -12 0
-14 13 0
-14 12 0
15 -2 -4 0
-15 2 0
-15 4 0
16 -15 12 0
-16 15 0
-16 -12 0
17 15 -12 0
-17 -15 0
-17 12 0
18 17 16 0
-18 -17 0
-18 -16 0
19 -1 -3 0
-19 1 0
-19 3 0
-20 19 0
20 -19 0
-21 -9 0
21 9 0
-22 -18 0
22 18 0
-23 14 0
23 -14 0
-20 0
-21 0
-22 0
-23 0
